27      4       
10      10      10      10      
0       0       0       0       0       5       2       4       6       8       9       
10      2       0       1       0       2       3       5       
9       7       1       0       0       3       7       11      12      
1       0       0       2       1       1       5       
8       2       0       0       10      2       7       11      
4       6       0       0       6       2       7       11      
3       0       4       0       3       4       10      13      15      16      
4       0       0       6       3       3       12      15      16      
10      3       0       0       5       3       12      15      16      
5       7       4       0       0       3       14      17      20      
6       6       4       0       0       3       13      16      18      
7       0       8       0       9       2       13      14      
8       0       4       6       0       3       19      20      26      
1       4       0       4       0       2       18      26      
6       0       10      2       0       1       17      
10      5       6       0       0       3       20      22      26      
10      0       0       9       4       2       19      26      
3       5       0       6       0       1       19      
6       3       0       0       6       3       21      22      25      
3       1       0       7       0       2       21      25      
7       0       4       0       6       2       23      24      
7       7       0       6       0       2       23      24      
2       4       0       0       4       1       27      
6       0       0       5       3       1       27      
9       10      0       4       0       1       27      
1       8       0       7       0       1       27      
0       0       0       0       0       0       
